************************************************************************
file with basedata            : n/a
initial value random generator: n/a
************************************************************************
projects                      :  1
jobs (incl. supersource/sink ):  122
horizon                       :  644
RESOURCES
  - renewable                 :  4   R
  - nonrenewable              :  0   N
  - doubly constrained        :  0   D
************************************************************************
PROJECT INFORMATION:
pronr.  #jobs rel.date duedate tardcost  MPM-Time
    1    120      0       91       56       91
************************************************************************
PRECEDENCE RELATIONS:
jobnr.    #modes  #successors   successors
   1        1          3           2   3   4
   2        1          3           5  13  68
   3        1          3           7   8  26
   4        1          3           6  14  96
   5        1          3          10  22  41
   6        1          3          16  46 100
   7        1          3           9  11  69
   8        1          3          12  18  20
   9        1          3          15  17  30
  10        1          3          24  27  91
  11        1          2          72  86
  12        1          3          34  64  73
  13        1          2          55  65
  14        1          3          23  28  38
  15        1          3          21  88  96
  16        1          3          19  48  89
  17        1          3          32  47  52
  18        1          3          36  39  57
  19        1          3          32  37  54
  20        1          3          27  53  66
  21        1          1          60
  22        1          2          29  35
  23        1          3          25  45 107
  24        1          3          33  47  90
  25        1          3          31  37  40
  26        1          3          75  76 105
  27        1          1          42
  28        1          3          67  84 121
  29        1          1          53
  30        1          3          35  74  83
  31        1          2          62  98
  32        1          3          55  58  63
  33        1          3          56  60  88
  34        1          3          51  56  66
  35        1          2          54  85
  36        1          3          49  72  96
  37        1          2          57  78
  38        1          3          44  50  94
  39        1          3          55  58  99
  40        1          3          43  83 106
  41        1          3          59  63  97
  42        1          2          59  82
  43        1          3          68  74 108
  44        1          2          81  97
  45        1          3          57  90 111
  46        1          3          49  60 109
  47        1          3          70  75 119
  48        1          2          53  78
  49        1          3          56  77  86
  50        1          3          59  87 113
  51        1          3          62  69  75
  52        1          2          61  65
  53        1          3          54  73  82
  54        1          3          71  92  99
  55        1          1          64
  56        1          2          58  93
  57        1          3          82  95 115
  58        1          2          71  79
  59        1          3          70  72  77
  60        1          3          66  76  77
  61        1          3          71  76 117
  62        1          2          63  65
  63        1          1         101
  64        1          2          94 101
  65        1          3          87  93 104
  66        1          3          79  84  86
  67        1          2          68  92
  68        1          3          89  91  98
  69        1          1          70
  70        1          2          74 102
  71        1          2          87 111
  72        1          2          88 114
  73        1          1          80
  74        1          2          81 100
  75        1          1          81
  76        1          2          89 106
  77        1          2          93 116
  78        1          3          79  80 104
  79        1          1          85
  80        1          3          83  90  98
  81        1          1         120
  82        1          2         112 113
  83        1          2          84  91
  84        1          2          85  99
  85        1          2          92 103
  86        1          2          94 103
  87        1          1         115
  88        1          2         110 117
  89        1          1         103
  90        1          1         109
  91        1          1          95
  92        1          2          95  97
  93        1          1         117
  94        1          3         104 106 107
  95        1          2         105 110
  96        1          3         100 107 108
  97        1          1         101
  98        1          1         109
  99        1          2         102 114
 100        1          1         116
 101        1          1         102
 102        1          1         108
 103        1          1         112
 104        1          1         105
 105        1          1         118
 106        1          2         110 111
 107        1          2         114 115
 108        1          1         120
 109        1          1         113
 110        1          1         112
 111        1          1         118
 112        1          1         118
 113        1          1         119
 114        1          1         119
 115        1          1         116
 116        1          1         121
 117        1          1         121
 118        1          1         120
 119        1          1         122
 120        1          1         122
 121        1          1         122
 122        1          0        
************************************************************************
REQUESTS/DURATIONS:
jobnr. mode duration  R 1  R 2  R 3  R 4
------------------------------------------------------------------------
  1      1     0    
  2      1    10       0   0   0   0   0   0   0   0   0   0
                       8   8   8   8   8   8   8   8   8   8
                       8   8   8   8   8   8   8   8   8   8
                       9   9   9   9   9   9   9   9   9   9
  3      1     5       5   5   5   5   5
                       7   7   7   7   7
                       6   6   6   6   6
                       7   7   7   7   7
  4      1     4       9   9   0   0
                       0   0   0   0
                       7   7   0   0
                       5   5   0   0
  5      1     6       1   1   1   1   1   1
                       0   0   0   0   0   0
                       2   2   2   2   2   2
                       4   4   4   4   4   4
  6      1     2       0   0
                       2   2
                       4   4
                       1   1
  7      1     2       2   2
                       1   1
                       4   4
                       1   1
  8      1     5       9   9   9   9   9
                       5   5   5   5   5
                       8   8   8   8   8
                       7   7   7   7   7
  9      1     5       0   0   0   0   0
                       9   9   9   9   9
                       2   2   2   2   2
                       0   0   0   0   0
 10      1     4       2   2   0   2
                       4   4   0   4
                       9   9   0   9
                       0   0   0   0
 11      1     8       0   0   0   0   0   0   0   0
                       6   6   6   6   6   6   6   0
                       7   7   7   7   7   7   7   0
                      10  10  10  10  10  10  10   0
 12      1     9       3   3   3   3   3   3   3   3   3
                       4   4   4   4   4   4   4   4   4
                       2   2   2   2   2   2   2   2   2
                       4   4   4   4   4   4   4   4   4
 13      1     5       0   6   6   6   6
                       0   0   0   0   0
                       0  10  10  10  10
                       0   9   9   9   9
 14      1     2       0   0
                       0   7
                       0  10
                       0   7
 15      1     4       8   8   8   8
                       0   0   0   0
                       8   8   8   8
                       5   5   5   5
 16      1    10       0   0   0   0   0   0   0   0   0   0
                       3   3   3   3   3   3   0   3   3   3
                       1   1   1   1   1   1   0   1   1   1
                       0   0   0   0   0   0   0   0   0   0
 17      1     6       9   9   9   9   9   9
                       0   0   0   0   0   0
                       6   6   6   6   6   6
                       0   0   0   0   0   0
 18      1    10       0   0   0   0   0   0   0   0   0   0
                       0   0   0   0   0   0   0   0   0   0
                       3   3   3   3   3   3   3   3   3   3
                       4   4   4   4   4   4   4   4   4   4
 19      1     1       3
                       4
                       3
                       9
 20      1     5       4   4   4   4   4
                       0   0   0   0   0
                       8   8   8   8   8
                       1   1   1   1   1
 21      1    10       2   2   2   2   2   2   2   2   2   2
                       1   1   1   1   1   1   1   1   1   1
                       0   0   0   0   0   0   0   0   0   0
                       0   0   0   0   0   0   0   0   0   0
 22      1     4       0   0   0   0
                       0   0   0   0
                       0   0   0   0
                      10  10  10   0
 23      1     2       5   5
                       5   5
                       2   2
                       2   2
 24      1    10       1   0   1   1   1   0   1   1   1   1
                      10   0  10  10  10   0  10  10  10  10
                       1   0   1   1   1   0   1   1   1   1
                       7   0   7   7   7   0   7   7   7   7
 25      1     1       5
                       6
                       0
                       9
 26      1     5       6   0   6   6   6
                      10   0  10  10  10
                       8   0   8   8   8
                       1   0   1   1   1
 27      1    10       6   6   6   6   6   6   6   6   6   6
                       0   0   0   0   0   0   0   0   0   0
                       8   8   8   8   8   8   8   8   8   8
                       1   1   1   1   1   1   1   1   1   1
 28      1    10       1   1   1   1   1   0   0   1   1   1
                       8   8   8   8   8   0   0   8   8   8
                       4   4   4   4   4   0   0   4   4   4
                       5   5   5   5   5   0   0   5   5   5
 29      1    10       3   3   3   3   3   3   3   3   3   3
                       2   2   2   2   2   2   2   2   2   2
                       0   0   0   0   0   0   0   0   0   0
                       6   6   6   6   6   6   6   6   6   6
 30      1    10       5   5   0   5   0   5   5   5   5   5
                       9   9   0   9   0   9   9   9   9   9
                       3   3   0   3   0   3   3   3   3   3
                       9   9   0   9   0   9   9   9   9   9
 31      1     8       8   8   8   8   8   8   8   8
                       3   3   3   3   3   3   3   3
                       5   5   5   5   5   5   5   5
                       6   6   6   6   6   6   6   6
 32      1    10       1   1   1   1   1   1   1   1   1   1
                       7   7   7   7   7   7   7   7   7   7
                       3   3   3   3   3   3   3   3   3   3
                       0   0   0   0   0   0   0   0   0   0
 33      1     1       0
                       0
                       0
                       0
 34      1     1       3
                       1
                      10
                       0
 35      1     2      10  10
                       3   3
                       0   0
                       3   3
 36      1     3       1   1   1
                       3   3   3
                       3   3   3
                       9   9   9
 37      1     9       0   0   0   0   0   0   0   0   0
                       0   0   0   0   0   0   0   0   0
                       4   4   4   4   4   4   0   4   4
                       6   6   6   6   6   6   0   6   6
 38      1     6       9   9   9   0   9   9
                       4   4   4   0   4   4
                       2   2   2   0   2   2
                       2   2   2   0   2   2
 39      1    10       0   0   0   0   0   0   0   0   0   0
                       8   8   8   8   8   8   8   8   8   8
                       0   0   0   0   0   0   0   0   0   0
                       7   7   7   7   7   7   7   7   7   7
 40      1     3       9   9   9
                       4   4   4
                       0   0   0
                      10  10  10
 41      1     8       0   4   4   4   4   0   4   0
                       0   6   6   6   6   0   6   0
                       0   6   6   6   6   0   6   0
                       0   0   0   0   0   0   0   0
 42      1     8       0   9   9   9   9   9   9   9
                       0  10  10  10  10  10  10  10
                       0   4   4   4   4   4   4   4
                       0   7   7   7   7   7   7   7
 43      1     7       1   1   1   1   1   1   1
                       2   2   2   2   2   2   2
                       3   3   3   3   3   3   3
                       7   7   7   7   7   7   7
 44      1     3       9   9   9
                       7   7   7
                       1   1   1
                       8   8   8
 45      1     1       3
                       5
                       7
                       0
 46      1     3       0   0   0
                       8   8   8
                       3   3   3
                       0   0   0
 47      1     9       0   0   0   0   0   0   0   0   0
                       4   4   4   4   4   4   4   4   4
                       4   4   4   4   4   4   4   4   4
                      10  10  10  10  10  10  10  10  10
 48      1     2       6   6
                       6   6
                       9   9
                       0   0
 49      1     5       9   9   0   0   9
                       0   0   0   0   0
                       0   0   0   0   0
                       9   9   0   0   9
 50      1     3       4   4   4
                       9   9   9
                       7   7   7
                       5   5   5
 51      1    10       1   1   1   1   1   1   1   1   1   1
                       3   3   3   3   3   3   3   3   3   3
                       4   4   4   4   4   4   4   4   4   4
                       2   2   2   2   2   2   2   2   2   2
 52      1     5       9   9   9   0   9
                       8   8   8   0   8
                       1   1   1   0   1
                      10  10  10   0  10
 53      1     6       4   4   4   4   4   4
                       0   0   0   0   0   0
                       0   0   0   0   0   0
                       8   8   8   8   8   8
 54      1     6       1   1   1   1   1   0
                       7   7   7   7   7   0
                       7   7   7   7   7   0
                       8   8   8   8   8   0
 55      1     8       9   9   9   9   9   9   9   9
                       0   0   0   0   0   0   0   0
                       6   6   6   6   6   6   6   6
                       3   3   3   3   3   3   3   3
 56      1     1       0
                       0
                       0
                       0
 57      1     9       0   0   0   0   0   0   0   0   0
                       2   0   2   2   2   2   0   2   2
                       2   0   2   2   2   2   0   2   2
                       8   0   8   8   8   8   0   8   8
 58      1     3       2   2   2
                       6   6   6
                      10  10  10
                       3   3   3
 59      1     2       7   7
                       0   0
                       9   9
                       1   1
 60      1    10       0   0   0   0   0   0   0   0   0   0
                       0   6   6   6   6   6   6   6   6   6
                       0  10  10  10  10  10  10  10  10  10
                       0  10  10  10  10  10  10  10  10  10
 61      1     5       0   0   0   0   0
                       0   0   0   0   0
                       8   8   8   8   8
                       8   8   8   8   8
 62      1     2       6   6
                       0   0
                       2   2
                       5   5
 63      1     2       7   7
                       3   3
                       0   0
                       0   0
 64      1     1       7
                       2
                       0
                       3
 65      1     3       0   0   0
                       4   4   4
                       7   7   7
                       8   8   8
 66      1     4       0   0   0   0
                       0   0   0   0
                       1   1   1   1
                       0   0   0   0
 67      1     7       0   0   0   0   0   0   0
                       0   0   0   0   0   0   0
                       8   8   8   8   8   8   0
                       4   4   4   4   4   4   0
 68      1     8       0   0   0   0   0   0   0   0
                       6   6   6   6   6   6   6   6
                       9   9   9   9   9   9   9   9
                       9   9   9   9   9   9   9   9
 69      1     5       0   0   0   0   0
                       0   0   0   0   0
                       6   6   6   6   6
                       4   4   4   4   4
 70      1     4       0   0   0   0
                       0   0   0   0
                       5   5   5   5
                       8   8   8   8
 71      1     8       0   0   0   0   0   0   0   0
                       1   1   1   0   1   1   1   1
                       8   8   8   0   8   8   8   8
                       0   0   0   0   0   0   0   0
 72      1     3       8   8   8
                       0   0   0
                      10  10  10
                       5   5   5
 73      1    10       4   4   4   4   4   4   4   4   4   4
                       8   8   8   8   8   8   8   8   8   8
                       0   0   0   0   0   0   0   0   0   0
                       0   0   0   0   0   0   0   0   0   0
 74      1     6       5   5   5   5   5   5
                       3   3   3   3   3   3
                       0   0   0   0   0   0
                       4   4   4   4   4   4
 75      1     2       4   4
                       9   9
                       8   8
                       8   8
 76      1     6       7   7   7   7   7   7
                       4   4   4   4   4   4
                       0   0   0   0   0   0
                       1   1   1   1   1   1
 77      1     9       0   0   0   0   0   0   0   0   0
                       5   5   5   5   5   5   5   5   5
                       0   0   0   0   0   0   0   0   0
                       1   1   1   1   1   1   1   1   1
 78      1     1       9
                       7
                       0
                       0
 79      1     4       0   0   0   0
                       3   3   3   3
                       8   8   8   8
                       0   0   0   0
 80      1     8       1   1   1   1   1   1   1   1
                       7   7   7   7   7   7   7   7
                       9   9   9   9   9   9   9   9
                       2   2   2   2   2   2   2   2
 81      1     4      10  10  10  10
                       4   4   4   4
                       7   7   7   7
                       3   3   3   3
 82      1     7       4   4   4   4   4   4   4
                       4   4   4   4   4   4   4
                       7   7   7   7   7   7   7
                      10  10  10  10  10  10  10
 83      1     9       4   0   4   4   0   0   4   4   4
                       3   0   3   3   0   0   3   3   3
                      10   0  10  10   0   0  10  10  10
                       0   0   0   0   0   0   0   0   0
 84      1     1       5
                       4
                       2
                       9
 85      1     6       8   8   8   8   8   8
                       5   5   5   5   5   5
                       4   4   4   4   4   4
                       0   0   0   0   0   0
 86      1     3       4   4   4
                       3   3   3
                       4   4   4
                       1   1   1
 87      1     3       2   2   2
                       0   0   0
                       9   9   9
                       4   4   4
 88      1     9       1   1   1   1   1   0   1   1   1
                       8   8   8   8   8   0   8   8   8
                       3   3   3   3   3   0   3   3   3
                       5   5   5   5   5   0   5   5   5
 89      1     3       6   6   6
                       0   0   0
                       8   8   8
                       0   0   0
 90      1     6       0   0   0   0   0   0
                      10  10  10  10  10  10
                       2   2   2   2   2   2
                       0   0   0   0   0   0
 91      1     8      10  10  10  10  10  10  10  10
                       7   7   7   7   7   7   7   7
                       6   6   6   6   6   6   6   6
                       0   0   0   0   0   0   0   0
 92      1     2       0   0
                       7   7
                       6   6
                      10  10
 93      1     5       0   8   8   8   8
                       0   7   7   7   7
                       0   0   0   0   0
                       0   3   3   3   3
 94      1     3      10  10  10
                       1   1   1
                       6   6   6
                       8   8   8
 95      1     7       9   9   0   9   9   9   9
                       9   9   0   9   9   9   9
                       0   0   0   0   0   0   0
                       5   5   0   5   5   5   5
 96      1    10       0   0   0   0   0   0   0   0   0   0
                       0   0   0   0   0   0   0   0   0   0
                       9   9   9   9   9   9   9   9   9   9
                       7   7   7   7   7   7   7   7   7   7
 97      1     2       0   0
                       0   0
                       1   1
                       0   0
 98      1     9       2   0   2   2   2   2   2   2   2
                       0   0   0   0   0   0   0   0   0
                       0   0   0   0   0   0   0   0   0
                       0   0   0   0   0   0   0   0   0
 99      1     1       0
                       0
                       8
                       9
100      1     4       4   4   4   4
                       7   7   7   7
                       2   2   2   2
                       0   0   0   0
101      1     5       9   9   9   9   9
                       9   9   9   9   9
                       0   0   0   0   0
                       7   7   7   7   7
102      1     6       4   4   4   4   4   4
                       0   0   0   0   0   0
                       0   0   0   0   0   0
                       5   5   5   5   5   5
103      1     1       0
                       0
                       0
                       0
104      1     4       8   8   8   8
                       0   0   0   0
                       0   0   0   0
                       0   0   0   0
105      1     6       8   8   8   8   8   8
                       7   7   7   7   7   7
                       1   1   1   1   1   1
                       0   0   0   0   0   0
106      1     2       8   8
                       1   1
                       1   1
                       7   7
107      1     4       6   6   6   6
                       8   8   8   8
                      10  10  10  10
                       8   8   8   8
108      1     4       0   0   0   0
                       0   0   0   0
                       1   1   0   1
                       3   3   0   3
109      1     5       6   6   0   6   6
                       2   2   0   2   2
                       5   5   0   5   5
                       7   7   0   7   7
110      1     4       7   7   7   7
                      10  10  10  10
                       0   0   0   0
                      10  10  10  10
111      1     6       4   4   4   4   4   4
                       0   0   0   0   0   0
                       3   3   3   3   3   3
                       0   0   0   0   0   0
112      1     1       5
                       0
                       1
                       6
113      1    10      10  10  10  10  10  10  10  10   0  10
                       8   8   8   8   8   8   8   8   0   8
                       0   0   0   0   0   0   0   0   0   0
                       8   8   8   8   8   8   8   8   0   8
114      1     4       8   8   8   8
                       6   6   6   6
                       6   6   6   6
                       9   9   9   9
115      1    10       0   0   0   0   0   0   0   0   0   0
                       3   3   3   3   3   3   3   3   3   3
                      10  10  10  10  10  10  10  10  10  10
                       1   1   1   1   1   1   1   1   1   1
116      1     8       7   7   7   7   7   7   0   7
                       8   8   8   8   8   8   0   8
                       0   0   0   0   0   0   0   0
                       4   4   4   4   4   4   0   4
117      1     8       0   0   0   0   0   0   0   0
                       7   7   7   0   7   7   7   7
                       9   9   9   0   9   9   9   9
                      10  10  10   0  10  10  10  10
118      1     4       5   5   0   5
                       1   1   0   1
                       0   0   0   0
                       0   0   0   0
119      1     4       2   2   2   2
                       6   6   6   6
                       1   1   1   1
                       3   3   3   3
120      1     2       2   2
                       9   9
                       4   4
                       3   3
121      1     9       3   3   3   3   3   3   3   3   3
                       7   7   7   7   7   7   7   7   7
                       4   4   4   4   4   4   4   4   4
                       7   7   7   7   7   7   7   7   7
122      1     0    
************************************************************************
RESOURCEAVAILABILITIES:
  R 1  R 2  R 3  R 4

  20  20  20  20  20  20   0  20  20  20   0  20  20  20  20  20  20  20  20  20  20  20  20  20  20   0  20  20  20  20  20  20  20   0  20  20  20  20  20  20  20  20  20  20   0  20  20  20  20  20  20  20  20  20  20  20  20   0  20  20  20  20  20  20  20  20  20  20  20  20  20  20  20  20  20  20  20   0  20  20  20  20  20  20  20  20  20  20  20  20  20  20  20  20  20   0  20  20  20  20  20  20  20  20  20  20  20  20  20  20  20  20  20  20  20  20  20  20  20  20  20  20  20  20  20  20  20  20  20  20  20  20  20  20  20   0  20  20  20   0  20  20  20  20  20  20  20  20  20  20  20  20  20  20   0  20  20  20  20  20  20  20  20  20  20  20  20  20  20  20  20  20  20  20  20  20  20  20  20  20  20  20  20  20  20  20  20  20  20  20  20  20  20  20  20  20  20  20  20  20  20  20  20  20  20  20  20  20   0  20  20  20  20  20  20   0  20  20  20  20  20  20  20  20  20  20  20  20  20  20  20  20  20  20  20  20  20  20  20  20  20  20  20  20  20  20  20  20  20  20  20  20  20  20  20  20  20  20  20  20  20  20   0  20  20  20  20  20  20  20  20   0  20  20  20  20  20  20  20  20  20  20  20  20  20  20  20  20  20  20  20  20  20  20  20  20  20  20  20  20  20  20  20  20  20  20  20  20  20  20  20  20  20  20  20  20  20  20  20  20  20  20  20  20  20  20  20  20  20  20  20  20  20   0  20  20  20   0  20  20  20   0  20  20  20  20  20  20  20  20  20  20  20  20  20  20   0  20  20  20  20  20  20  20  20  20  20  20  20  20  20  20  20  20  20  20  20  20  20  20  20  20  20  20  20  20  20  20  20  20  20  20  20  20  20  20  20  20  20  20  20  20  20  20  20  20  20  20  20  20  20  20  20  20  20  20  20  20  20  20  20  20  20  20  20  20  20  20  20   0  20  20  20  20   0  20  20  20  20  20  20  20  20  20   0  20  20  20  20  20  20  20   0  20  20  20   0  20   0  20  20   0  20  20  20  20  20  20  20  20  20  20  20  20  20  20  20  20   0  20  20  20  20  20  20  20  20  20  20   0  20  20  20  20  20  20  20  20   0  20  20  20  20  20  20  20  20  20  20  20  20  20  20  20  20  20  20   0   0  20  20  20  20  20  20  20  20  20  20  20  20  20  20  20  20  20  20  20  20  20  20  20  20  20  20  20  20  20  20  20  20  20  20  20  20  20  20  20  20  20  20  20  20  20  20  20  20  20  20  20  20  20  20  20  20  20  20  20  20  20  20  20  20  20  20  20  20  20  20  20  20  20  20  20  20  20  20  20  20   0  20  20  20  20  20  20  20  20  20  20  20  20  20  20  20  20  20  20  20  20  20  20  20  20  20  20  20  20  20  20  20  20  20  20  20  20  20  20  20  20  20  20  20  20

  22  22  22  22  22  22   0  22  22  22   0  22  22  22  22  22  22  22  22  22  22  22  22  22  22   0  22  22  22  22  22  22  22   0  22  22  22  22  22  22  22  22  22  22   0  22  22  22  22  22  22  22  22  22  22  22  22   0  22  22  22  22  22  22  22  22  22  22  22  22  22  22  22  22  22  22  22   0  22  22  22  22  22  22  22  22  22  22  22  22  22  22  22  22  22   0  22  22  22  22  22  22  22  22  22  22  22  22  22  22  22  22  22  22  22  22  22  22  22  22  22  22  22  22  22  22  22  22  22  22  22  22  22  22  22   0  22  22  22   0  22  22  22  22  22  22  22  22  22  22  22  22  22  22   0  22  22  22  22  22  22  22  22  22  22  22  22  22  22  22  22  22  22  22  22  22  22  22  22  22  22  22  22  22  22  22  22  22  22  22  22  22  22  22  22  22  22  22  22  22  22  22  22  22  22  22  22  22   0  22  22  22  22  22  22   0  22  22  22  22  22  22  22  22  22  22  22  22  22  22  22  22  22  22  22  22  22  22  22  22  22  22  22  22  22  22  22  22  22  22  22  22  22  22  22  22  22  22  22  22  22  22   0  22  22  22  22  22  22  22  22   0  22  22  22  22  22  22  22  22  22  22  22  22  22  22  22  22  22  22  22  22  22  22  22  22  22  22  22  22  22  22  22  22  22  22  22  22  22  22  22  22  22  22  22  22  22  22  22  22  22  22  22  22  22  22  22  22  22  22  22  22  22   0  22  22  22   0  22  22  22   0  22  22  22  22  22  22  22  22  22  22  22  22  22  22   0  22  22  22  22  22  22  22  22  22  22  22  22  22  22  22  22  22  22  22  22  22  22  22  22  22  22  22  22  22  22  22  22  22  22  22  22  22  22  22  22  22  22  22  22  22  22  22  22  22  22  22  22  22  22  22  22  22  22  22  22  22  22  22  22  22  22  22  22  22  22  22  22   0  22  22  22  22   0  22  22  22  22  22  22  22  22  22   0  22  22  22  22  22  22  22   0  22  22  22   0  22   0  22  22   0  22  22  22  22  22  22  22  22  22  22  22  22  22  22  22  22   0  22  22  22  22  22  22  22  22  22  22   0  22  22  22  22  22  22  22  22   0  22  22  22  22  22  22  22  22  22  22  22  22  22  22  22  22  22  22   0   0  22  22  22  22  22  22  22  22  22  22  22  22  22  22  22  22  22  22  22  22  22  22  22  22  22  22  22  22  22  22  22  22  22  22  22  22  22  22  22  22  22  22  22  22  22  22  22  22  22  22  22  22  22  22  22  22  22  22  22  22  22  22  22  22  22  22  22  22  22  22  22  22  22  22  22  22  22  22  22  22   0  22  22  22  22  22  22  22  22  22  22  22  22  22  22  22  22  22  22  22  22  22  22  22  22  22  22  22  22  22  22  22  22  22  22  22  22  22  22  22  22  22  22  22  22

  22  22  22  22  22  22   0  22  22  22   0  22  22  22  22  22  22  22  22  22  22  22  22  22  22   0  22  22  22  22  22  22  22   0  22  22  22  22  22  22  22  22  22  22   0  22  22  22  22  22  22  22  22  22  22  22  22   0  22  22  22  22  22  22  22  22  22  22  22  22  22  22  22  22  22  22  22   0  22  22  22  22  22  22  22  22  22  22  22  22  22  22  22  22  22   0  22  22  22  22  22  22  22  22  22  22  22  22  22  22  22  22  22  22  22  22  22  22  22  22  22  22  22  22  22  22  22  22  22  22  22  22  22  22  22   0  22  22  22   0  22  22  22  22  22  22  22  22  22  22  22  22  22  22   0  22  22  22  22  22  22  22  22  22  22  22  22  22  22  22  22  22  22  22  22  22  22  22  22  22  22  22  22  22  22  22  22  22  22  22  22  22  22  22  22  22  22  22  22  22  22  22  22  22  22  22  22  22   0  22  22  22  22  22  22   0  22  22  22  22  22  22  22  22  22  22  22  22  22  22  22  22  22  22  22  22  22  22  22  22  22  22  22  22  22  22  22  22  22  22  22  22  22  22  22  22  22  22  22  22  22  22   0  22  22  22  22  22  22  22  22   0  22  22  22  22  22  22  22  22  22  22  22  22  22  22  22  22  22  22  22  22  22  22  22  22  22  22  22  22  22  22  22  22  22  22  22  22  22  22  22  22  22  22  22  22  22  22  22  22  22  22  22  22  22  22  22  22  22  22  22  22  22   0  22  22  22   0  22  22  22   0  22  22  22  22  22  22  22  22  22  22  22  22  22  22   0  22  22  22  22  22  22  22  22  22  22  22  22  22  22  22  22  22  22  22  22  22  22  22  22  22  22  22  22  22  22  22  22  22  22  22  22  22  22  22  22  22  22  22  22  22  22  22  22  22  22  22  22  22  22  22  22  22  22  22  22  22  22  22  22  22  22  22  22  22  22  22  22   0  22  22  22  22   0  22  22  22  22  22  22  22  22  22   0  22  22  22  22  22  22  22   0  22  22  22   0  22   0  22  22   0  22  22  22  22  22  22  22  22  22  22  22  22  22  22  22  22   0  22  22  22  22  22  22  22  22  22  22   0  22  22  22  22  22  22  22  22   0  22  22  22  22  22  22  22  22  22  22  22  22  22  22  22  22  22  22   0   0  22  22  22  22  22  22  22  22  22  22  22  22  22  22  22  22  22  22  22  22  22  22  22  22  22  22  22  22  22  22  22  22  22  22  22  22  22  22  22  22  22  22  22  22  22  22  22  22  22  22  22  22  22  22  22  22  22  22  22  22  22  22  22  22  22  22  22  22  22  22  22  22  22  22  22  22  22  22  22  22   0  22  22  22  22  22  22  22  22  22  22  22  22  22  22  22  22  22  22  22  22  22  22  22  22  22  22  22  22  22  22  22  22  22  22  22  22  22  22  22  22  22  22  22  22

  23  23  23  23  23  23   0  23  23  23   0  23  23  23  23  23  23  23  23  23  23  23  23  23  23   0  23  23  23  23  23  23  23   0  23  23  23  23  23  23  23  23  23  23   0  23  23  23  23  23  23  23  23  23  23  23  23   0  23  23  23  23  23  23  23  23  23  23  23  23  23  23  23  23  23  23  23   0  23  23  23  23  23  23  23  23  23  23  23  23  23  23  23  23  23   0  23  23  23  23  23  23  23  23  23  23  23  23  23  23  23  23  23  23  23  23  23  23  23  23  23  23  23  23  23  23  23  23  23  23  23  23  23  23  23   0  23  23  23   0  23  23  23  23  23  23  23  23  23  23  23  23  23  23   0  23  23  23  23  23  23  23  23  23  23  23  23  23  23  23  23  23  23  23  23  23  23  23  23  23  23  23  23  23  23  23  23  23  23  23  23  23  23  23  23  23  23  23  23  23  23  23  23  23  23  23  23  23   0  23  23  23  23  23  23   0  23  23  23  23  23  23  23  23  23  23  23  23  23  23  23  23  23  23  23  23  23  23  23  23  23  23  23  23  23  23  23  23  23  23  23  23  23  23  23  23  23  23  23  23  23  23   0  23  23  23  23  23  23  23  23   0  23  23  23  23  23  23  23  23  23  23  23  23  23  23  23  23  23  23  23  23  23  23  23  23  23  23  23  23  23  23  23  23  23  23  23  23  23  23  23  23  23  23  23  23  23  23  23  23  23  23  23  23  23  23  23  23  23  23  23  23  23   0  23  23  23   0  23  23  23   0  23  23  23  23  23  23  23  23  23  23  23  23  23  23   0  23  23  23  23  23  23  23  23  23  23  23  23  23  23  23  23  23  23  23  23  23  23  23  23  23  23  23  23  23  23  23  23  23  23  23  23  23  23  23  23  23  23  23  23  23  23  23  23  23  23  23  23  23  23  23  23  23  23  23  23  23  23  23  23  23  23  23  23  23  23  23  23   0  23  23  23  23   0  23  23  23  23  23  23  23  23  23   0  23  23  23  23  23  23  23   0  23  23  23   0  23   0  23  23   0  23  23  23  23  23  23  23  23  23  23  23  23  23  23  23  23   0  23  23  23  23  23  23  23  23  23  23   0  23  23  23  23  23  23  23  23   0  23  23  23  23  23  23  23  23  23  23  23  23  23  23  23  23  23  23   0   0  23  23  23  23  23  23  23  23  23  23  23  23  23  23  23  23  23  23  23  23  23  23  23  23  23  23  23  23  23  23  23  23  23  23  23  23  23  23  23  23  23  23  23  23  23  23  23  23  23  23  23  23  23  23  23  23  23  23  23  23  23  23  23  23  23  23  23  23  23  23  23  23  23  23  23  23  23  23  23  23   0  23  23  23  23  23  23  23  23  23  23  23  23  23  23  23  23  23  23  23  23  23  23  23  23  23  23  23  23  23  23  23  23  23  23  23  23  23  23  23  23  23  23  23  23

************************************************************************
